Geographic Exponential Decay
80 252 262 99 257 217 80 232 59 255 190 88 44 284 187 283 12 110 91 253 153 171 176 124 269 107 263 131 102 300 34 256 89 314 55 266 318 4 241 95 13 164 165 52 144 140 246 177 184 117 24 297 123 173 301 304 193 313 167 145 278 48 127 206 70 2 163 36 234 275 86 49 19 298 267 42 268 247 68 128 235
p edge 320 675
e 0 11 2.0
e 1 43 7.0
e 1 255 71.0
e 2 186 79.0
e 2 309 19.0
e 2 101 83.0
e 2 122 71.0
e 2 28 81.0
e 2 173 7.0
e 2 206 71.0
e 2 165 31.0
e 2 215 65.0
e 3 17 3.0
e 4 177 31.0
e 4 9 6.0
e 4 85 4.0
e 4 243 51.0
e 4 295 26.0
e 4 98 91.0
e 4 210 5.0
e 4 271 36.0
e 4 235 75.0
e 5 187 58.0
e 6 226 1.0
e 7 113 8.0
e 8 54 1.0
e 10 21 1.0
e 12 6 82.0
e 12 26 2.0
e 12 35 23.0
e 12 25 3.0
e 12 105 1.0
e 12 157 79.0
e 12 273 84.0
e 12 166 38.0
e 12 114 77.0
e 13 68 67.0
e 13 175 82.0
e 13 152 81.0
e 13 200 48.0
e 13 193 57.0
e 13 154 24.0
e 13 188 100.0
e 13 307 87.0
e 13 53 22.0
e 14 107 78.0
e 14 300 96.0
e 15 312 1.0
e 16 250 1.0
e 16 309 7.0
e 18 116 4.0
e 19 50 55.0
e 19 15 74.0
e 19 128 4.0
e 19 24 100.0
e 19 245 60.0
e 19 65 89.0
e 19 94 17.0
e 19 62 5.0
e 19 39 54.0
e 20 78 7.0
e 22 8 1.0
e 23 187 89.0
e 24 55 20.0
e 24 134 81.0
e 24 27 75.0
e 24 74 95.0
e 24 284 35.0
e 24 58 92.0
e 24 90 80.0
e 24 7 18.0
e 25 62 1.0
e 26 137 9.0
e 26 224 1.0
e 29 80 34.0
e 30 131 6.0
e 31 105 1.0
e 32 244 1.0
e 33 299 22.0
e 33 298 54.0
e 33 136 18.0
e 34 247 22.0
e 34 230 63.0
e 34 9 38.0
e 34 77 36.0
e 34 283 99.0
e 34 130 98.0
e 34 231 6.0
e 34 136 56.0
e 34 106 88.0
e 36 211 67.0
e 36 171 17.0
e 36 272 74.0
e 36 10 66.0
e 36 68 5.0
e 36 256 21.0
e 36 269 39.0
e 36 59 53.0
e 36 96 76.0
e 37 136 24.0
e 38 266 92.0
e 40 181 2.0
e 40 206 35.0
e 41 270 11.0
e 42 77 58.0
e 42 229 83.0
e 42 103 18.0
e 42 11 28.0
e 42 209 57.0
e 42 152 97.0
e 42 35 35.0
e 42 140 59.0
e 42 246 28.0
e 44 139 90.0
e 44 180 69.0
e 44 20 25.0
e 44 78 37.0
e 44 0 97.0
e 44 57 51.0
e 44 173 64.0
e 44 145 77.0
e 44 229 72.0
e 45 281 1.0
e 46 21 3.0
e 47 253 82.0
e 47 71 7.0
e 48 119 37.0
e 48 206 12.0
e 48 282 64.0
e 48 291 75.0
e 48 151 19.0
e 48 72 38.0
e 48 66 24.0
e 48 141 29.0
e 48 18 13.0
e 49 244 37.0
e 49 116 52.0
e 49 238 74.0
e 49 110 31.0
e 49 19 89.0
e 49 123 19.0
e 49 34 92.0
e 49 207 49.0
e 49 36 24.0
e 50 31 24.0
e 50 70 78.0
e 51 43 3.0
e 52 313 88.0
e 52 67 78.0
e 52 38 56.0
e 52 125 26.0
e 52 1 6.0
e 52 71 53.0
e 52 163 40.0
e 52 246 68.0
e 52 305 7.0
e 55 75 12.0
e 55 230 10.0
e 55 96 94.0
e 55 22 95.0
e 55 47 63.0
e 55 231 47.0
e 55 271 57.0
e 55 257 50.0
e 56 27 5.0
e 59 62 82.0
e 59 263 98.0
e 59 167 24.0
e 59 125 34.0
e 59 230 39.0
e 59 28 37.0
e 59 78 73.0
e 59 89 14.0
e 60 211 1.0
e 60 196 11.0
e 61 170 4.0
e 63 169 5.0
e 63 106 8.0
e 64 199 1.0
e 65 12 24.0
e 65 160 7.0
e 68 87 18.0
e 68 72 25.0
e 68 61 93.0
e 68 304 62.0
e 68 44 12.0
e 68 268 35.0
e 68 230 75.0
e 69 239 2.0
e 69 149 1.0
e 70 175 92.0
e 70 107 1.0
e 70 45 59.0
e 70 23 71.0
e 70 226 67.0
e 70 283 8.0
e 70 177 66.0
e 70 55 59.0
e 73 188 5.0
e 76 117 43.0
e 76 315 6.0
e 76 156 21.0
e 79 316 2.0
e 80 140 91.0
e 80 199 18.0
e 80 249 91.0
e 80 94 23.0
e 80 173 12.0
e 80 245 9.0
e 80 37 77.0
e 80 241 78.0
e 81 173 72.0
e 81 3 6.0
e 82 310 1.0
e 83 265 1.0
e 84 163 46.0
e 86 234 61.0
e 86 131 73.0
e 86 46 36.0
e 86 148 100.0
e 86 224 62.0
e 86 154 17.0
e 86 310 52.0
e 86 267 98.0
e 86 233 30.0
e 88 307 92.0
e 88 235 92.0
e 88 49 24.0
e 88 159 71.0
e 88 89 9.0
e 88 87 98.0
e 88 85 20.0
e 88 239 25.0
e 88 293 100.0
e 89 39 5.0
e 89 235 58.0
e 89 142 49.0
e 89 311 45.0
e 89 183 21.0
e 89 82 82.0
e 89 316 53.0
e 91 286 29.0
e 91 122 4.0
e 91 267 59.0
e 91 121 89.0
e 91 97 44.0
e 91 115 48.0
e 91 240 41.0
e 91 255 84.0
e 91 89 33.0
e 92 13 27.0
e 93 318 24.0
e 95 14 43.0
e 95 128 38.0
e 95 204 51.0
e 95 79 31.0
e 95 220 7.0
e 95 177 58.0
e 95 132 20.0
e 95 107 64.0
e 95 129 78.0
e 99 107 17.0
e 99 97 95.0
e 99 100 68.0
e 99 214 8.0
e 99 98 100.0
e 99 246 81.0
e 99 241 31.0
e 99 91 24.0
e 99 317 99.0
e 102 73 94.0
e 102 232 8.0
e 102 272 87.0
e 102 92 51.0
e 102 270 9.0
e 102 48 66.0
e 102 128 35.0
e 102 68 67.0
e 102 75 83.0
e 104 129 10.0
e 107 198 61.0
e 107 274 59.0
e 107 139 3.0
e 107 236 83.0
e 107 273 27.0
e 108 104 4.0
e 109 187 2.0
e 110 180 93.0
e 110 63 82.0
e 110 207 98.0
e 110 149 42.0
e 110 145 53.0
e 110 124 65.0
e 110 257 37.0
e 110 259 67.0
e 111 181 5.0
e 112 108 2.0
e 112 93 2.0
e 113 4 42.0
e 117 50 8.0
e 117 74 49.0
e 117 80 33.0
e 117 81 17.0
e 117 318 63.0
e 117 2 73.0
e 117 265 4.0
e 117 303 87.0
e 118 254 4.0
e 119 196 10.0
e 119 95 42.0
e 120 16 5.0
e 123 17 31.0
e 123 118 36.0
e 123 176 41.0
e 123 99 54.0
e 123 232 4.0
e 123 210 97.0
e 123 214 59.0
e 123 76 11.0
e 124 171 85.0
e 124 269 28.0
e 124 67 36.0
e 124 164 82.0
e 124 252 89.0
e 124 289 70.0
e 124 232 65.0
e 124 83 97.0
e 126 84 1.0
e 127 237 72.0
e 127 256 56.0
e 127 100 93.0
e 127 119 7.0
e 127 154 74.0
e 127 64 32.0
e 127 24 46.0
e 127 258 16.0
e 127 200 82.0
e 128 5 81.0
e 128 26 21.0
e 128 65 59.0
e 128 233 100.0
e 128 151 10.0
e 128 101 29.0
e 131 293 63.0
e 131 58 23.0
e 131 32 84.0
e 131 33 53.0
e 131 133 55.0
e 131 157 24.0
e 131 25 17.0
e 133 155 9.0
e 133 184 81.0
e 135 86 64.0
e 138 249 1.0
e 140 29 43.0
e 140 189 55.0
e 140 213 29.0
e 140 208 34.0
e 140 313 41.0
e 140 30 19.0
e 140 266 88.0
e 143 161 8.0
e 143 88 52.0
e 144 298 67.0
e 144 66 21.0
e 144 248 68.0
e 144 40 57.0
e 144 41 36.0
e 144 191 2.0
e 144 232 11.0
e 144 288 69.0
e 144 42 92.0
e 145 206 73.0
e 145 59 3.0
e 145 308 15.0
e 145 296 17.0
e 145 51 75.0
e 145 225 43.0
e 145 52 54.0
e 146 212 1.0
e 146 129 1.0
e 147 69 2.0
e 150 114 1.0
e 150 115 2.0
e 153 217 77.0
e 153 195 92.0
e 153 253 26.0
e 153 60 32.0
e 153 158 23.0
e 153 144 60.0
e 153 274 66.0
e 153 302 2.0
e 153 205 41.0
e 158 294 2.0
e 159 249 2.0
e 159 176 91.0
e 160 269 95.0
e 162 57 1.0
e 163 263 90.0
e 163 135 20.0
e 163 90 72.0
e 163 111 55.0
e 163 173 93.0
e 163 240 83.0
e 163 288 43.0
e 164 134 48.0
e 164 53 36.0
e 164 277 77.0
e 164 102 81.0
e 164 246 38.0
e 164 54 9.0
e 164 56 42.0
e 164 216 66.0
e 165 202 11.0
e 165 268 53.0
e 165 195 78.0
e 165 318 51.0
e 165 120 55.0
e 165 215 50.0
e 165 282 36.0
e 165 176 29.0
e 167 176 98.0
e 167 281 28.0
e 167 121 16.0
e 167 70 51.0
e 167 117 47.0
e 167 269 20.0
e 167 103 74.0
e 167 107 88.0
e 168 109 1.0
e 171 228 63.0
e 171 227 67.0
e 171 110 59.0
e 171 212 43.0
e 171 123 48.0
e 171 298 65.0
e 171 112 47.0
e 172 113 4.0
e 173 124 38.0
e 173 222 59.0
e 173 261 66.0
e 173 126 30.0
e 174 127 1.0
e 174 176 95.0
e 174 168 15.0
e 176 270 66.0
e 176 171 29.0
e 176 128 51.0
e 176 286 86.0
e 177 166 33.0
e 177 174 18.0
e 177 130 20.0
e 177 131 21.0
e 177 132 61.0
e 177 155 97.0
e 178 133 19.0
e 179 136 21.0
e 179 201 24.0
e 179 137 22.0
e 182 237 1.0
e 182 138 8.0
e 184 140 95.0
e 184 158 34.0
e 184 141 83.0
e 184 215 48.0
e 184 234 67.0
e 184 142 61.0
e 184 143 77.0
e 184 145 46.0
e 185 167 69.0
e 187 146 45.0
e 187 147 58.0
e 187 148 56.0
e 187 232 27.0
e 187 219 83.0
e 187 150 53.0
e 189 153 25.0
e 190 156 40.0
e 190 154 77.0
e 190 164 17.0
e 190 165 4.0
e 190 300 71.0
e 190 176 44.0
e 190 159 34.0
e 190 160 76.0
e 190 161 72.0
e 192 170 12.0
e 192 162 7.0
e 193 163 91.0
e 193 169 3.0
e 193 172 66.0
e 193 173 84.0
e 193 177 72.0
e 193 178 90.0
e 193 202 13.0
e 193 243 47.0
e 194 179 8.0
e 197 182 21.0
e 197 183 23.0
e 197 184 40.0
e 203 220 2.0
e 206 291 81.0
e 206 227 28.0
e 206 185 75.0
e 206 204 20.0
e 206 289 87.0
e 217 186 17.0
e 217 187 31.0
e 217 188 50.0
e 217 189 41.0
e 217 190 1.0
e 217 215 44.0
e 217 198 79.0
e 217 299 49.0
e 218 191 1.0
e 220 287 12.0
e 221 275 22.0
e 223 277 7.0
e 225 205 7.0
e 232 192 93.0
e 232 193 63.0
e 232 287 8.0
e 232 194 94.0
e 234 246 45.0
e 234 197 21.0
e 234 201 48.0
e 234 203 66.0
e 234 206 21.0
e 234 208 27.0
e 234 209 32.0
e 235 213 66.0
e 235 301 18.0
e 235 216 13.0
e 235 217 95.0
e 235 218 84.0
e 235 283 81.0
e 241 219 46.0
e 241 220 7.0
e 241 221 69.0
e 241 222 45.0
e 241 223 30.0
e 241 225 45.0
e 241 305 28.0
e 242 228 1.0
e 246 232 29.0
e 246 235 18.0
e 246 236 69.0
e 246 238 53.0
e 247 318 12.0
e 247 234 80.0
e 247 275 93.0
e 247 241 75.0
e 247 242 16.0
e 247 246 33.0
e 247 276 8.0
e 247 248 3.0
e 251 247 33.0
e 251 248 11.0
e 252 250 91.0
e 252 303 97.0
e 252 251 67.0
e 252 253 35.0
e 252 254 10.0
e 252 275 94.0
e 252 255 18.0
e 252 256 15.0
e 253 255 59.0
e 253 256 88.0
e 253 257 12.0
e 253 258 92.0
e 253 259 57.0
e 253 260 71.0
e 255 256 66.0
e 255 257 85.0
e 255 260 49.0
e 255 261 30.0
e 255 262 52.0
e 256 257 87.0
e 256 291 21.0
e 256 261 96.0
e 256 262 70.0
e 257 275 71.0
e 257 252 98.0
e 257 261 21.0
e 257 262 72.0
e 261 284 48.0
e 262 261 93.0
e 262 253 10.0
e 262 263 51.0
e 262 264 44.0
e 262 283 99.0
e 262 284 11.0
e 263 255 44.0
e 263 275 51.0
e 263 256 80.0
e 263 257 1.0
e 263 264 55.0
e 263 266 31.0
e 264 306 8.0
e 266 262 16.0
e 266 264 66.0
e 266 267 41.0
e 266 268 11.0
e 266 269 65.0
e 266 275 60.0
e 267 263 19.0
e 267 268 57.0
e 267 269 49.0
e 267 275 71.0
e 267 276 58.0
e 267 277 33.0
e 268 269 71.0
e 268 275 13.0
e 268 311 22.0
e 268 278 78.0
e 268 279 21.0
e 269 275 18.0
e 269 278 46.0
e 278 266 1.0
e 278 267 5.0
e 278 275 79.0
e 278 279 52.0
e 278 280 6.0
e 278 283 8.0
e 278 284 92.0
e 279 269 99.0
e 283 268 72.0
e 283 279 50.0
e 283 280 23.0
e 283 284 87.0
e 284 285 33.0
e 284 290 87.0
e 284 292 54.0
e 284 314 41.0
e 297 290 18.0
e 297 278 27.0
e 297 283 12.0
e 297 284 24.0
e 297 285 93.0
e 297 292 1.0
e 297 294 73.0
e 297 295 87.0
e 297 296 74.0
e 298 297 30.0
e 298 299 70.0
e 298 300 92.0
e 298 301 34.0
e 298 302 78.0
e 298 303 21.0
e 300 301 68.0
e 300 304 71.0
e 300 305 30.0
e 300 306 24.0
e 300 308 20.0
e 300 311 16.0
e 301 304 68.0
e 301 306 46.0
e 301 308 69.0
e 301 311 90.0
e 301 312 36.0
e 301 313 47.0
e 304 298 92.0
e 304 313 90.0
e 304 314 19.0
e 304 315 11.0
e 304 317 26.0
e 304 318 91.0
e 313 300 75.0
e 313 314 23.0
e 313 315 22.0
e 313 318 45.0
e 313 319 10.0
e 314 301 95.0
e 314 318 28.0
e 314 319 68.0
